1541415
79,67,4,92,48,80,17,53,100,102,54,104,58,105,99,19,50,62,7,65,73,76,71,47,97,11,89,91,49,31,41,37,26,38,72,75,57,86,27,69,70,14,39,8,68,40,12,36,28,60,88,33,108,106,55,78,42,18,96,87,93,13,21,15,22,64,24,109,90,3,25,107,94,2,51,84,59,46,16,29,81,32,95,6,30,103,56,74,23,10,66,77,9,1,101,35,45,52,34,5,98,82,83,63,20,44,85,43,61